# Solution for model r5_t9_m9_7
# Finished Task: 9 / 9
# Makespan: 463.0, Total Distance: 206.0, Total Time: 1.9550
# R O S F
0 0 -1 158.0 158.0
1 1 7 245.0 245.0
2 2 5 195.0 195.0
3 3 8 165.0 165.0
4 4 9 205.0 205.0
5 2 -1 376.0 410.0
6 1 -1 437.0 463.0
7 1 13 263.0 285.0
8 3 -1 315.0 343.0
9 4 12 285.0 315.0
10 4 -1 410.0 437.0
11 1 6 376.0 410.0
12 4 10 343.0 376.0
13 1 11 296.0 317.0
